c ind 11 15 17 18 20 21 27 32 34 6 0
c ind 7 0
p cnf 34 92
-1 11 0
-1 2 0
-10 -11 6 0
-10 -6 11 0
-12 -13 19 0
-12 13 22 0
-13 14 0
-13 16 0
-14 -11 15 0
-14 -15 11 0
-16 -17 18 0
-16 -18 17 0
-18 0
-19 -20 21 0
-19 -21 20 0
-2 11 0
-2 3 0
-22 -23 26 0
-22 23 28 0
-23 24 0
-23 25 0
-24 -15 18 0
-24 -18 15 0
-25 -11 17 0
-25 -17 11 0
-26 -20 27 0
-26 -27 20 0
-28 -29 30 0
-28 29 31 0
-29 14 0
-29 25 0
-3 -4 8 0
-3 4 33 0
-30 -18 20 0
-30 -20 18 0
-31 -20 32 0
-31 -32 20 0
-33 -20 34 0
-33 -34 20 0
-4 -5 0
-5 -6 7 0
-5 -7 6 0
-8 -9 12 0
-8 9 33 0
-9 10 0
-9 4 0
1 -2 -11 0
1 0
10 -6 -11 0
10 6 11 0
11 0
12 -13 -19 0
12 -19 -22 0
12 13 -22 0
13 -14 -16 0
14 -15 -11 0
14 15 11 0
16 -17 -18 0
16 17 18 0
19 -20 -21 0
19 20 21 0
2 -3 -11 0
22 -23 -26 0
22 -26 -28 0
22 23 -28 0
23 -24 -25 0
24 -15 -18 0
24 15 18 0
25 -17 -11 0
25 17 11 0
26 -20 -27 0
26 20 27 0
28 -29 -30 0
28 -30 -31 0
28 29 -31 0
29 -14 -25 0
3 -4 -8 0
3 -8 -33 0
3 4 -33 0
30 -20 -18 0
30 20 18 0
31 -20 -32 0
31 20 32 0
33 -20 -34 0
33 20 34 0
4 5 0
5 -6 -7 0
5 6 7 0
8 -12 -33 0
8 -9 -12 0
8 9 -33 0
9 -4 -10 0
